c   Fichier CNF test pour l'exercice 1 du TD 5 de LO5
c   "Problème de Recouvrement"
c 	proposition i : ligne i
p cnf 6 22
2 4 0
-2 -4 0
3 5 0
-3 -5 0
1 3 0
-1 -3 0
2 4 6 0
-2 -4 0
-2 -6 0
-6 -4 0
1 6 0
-1 -6 0
1 3 0
-1 -3 0
2 5 6 0
-2 -5 0
-2 -6 0
-5 -6 0